DIMACS_lns/graph-1000-174.col
p edge 1000 1838
e 1 461
e 1 661
e 1 677
e 1 518
e 2 134
e 2 915
e 2 469
e 2 86
e 2 14
e 3 222
e 3 96
e 3 300
e 3 894
e 5 906
e 5 917
e 5 791
e 6 939
e 6 287
e 6 10
e 6 848
e 6 383
e 7 741
e 7 729
e 7 129
e 8 276
e 8 149
e 8 291
e 8 81
e 10 968
e 10 335
e 10 74
e 10 813
e 10 486
e 10 259
e 11 753
e 11 919
e 11 742
e 11 488
e 12 515
e 12 729
e 12 594
e 12 442
e 12 899
e 12 339
e 14 385
e 14 700
e 15 223
e 15 826
e 15 387
e 15 680
e 15 577
e 15 630
e 16 548
e 16 294
e 16 253
e 17 851
e 17 620
e 17 51
e 18 742
e 18 249
e 18 221
e 19 152
e 19 748
e 19 961
e 19 857
e 19 224
e 19 847
e 19 791
e 20 342
e 20 941
e 20 102
e 21 509
e 21 308
e 21 843
e 22 475
e 22 693
e 22 753
e 22 446
e 22 398
e 22 546
e 24 241
e 24 719
e 24 835
e 24 180
e 24 859
e 24 365
e 25 820
e 25 923
e 25 460
e 25 910
e 25 941
e 25 247
e 26 546
e 26 920
e 26 434
e 26 630
e 28 354
e 28 649
e 28 607
e 28 185
e 28 833
e 30 641
e 30 767
e 30 274
e 31 202
e 31 84
e 31 245
e 31 494
e 31 39
e 32 856
e 32 157
e 32 793
e 33 572
e 33 51
e 33 597
e 33 576
e 33 508
e 33 645
e 33 975
e 33 279
e 33 741
e 34 709
e 34 266
e 34 425
e 37 71
e 37 673
e 37 105
e 37 740
e 37 531
e 37 620
e 37 224
e 37 924
e 38 582
e 38 907
e 38 455
e 38 445
e 38 200
e 38 209
e 39 809
e 39 454
e 40 536
e 40 384
e 40 657
e 41 618
e 41 547
e 41 863
e 41 879
e 41 423
e 42 771
e 42 134
e 42 819
e 42 79
e 42 523
e 42 999
e 42 817
e 42 488
e 43 292
e 43 871
e 43 334
e 45 306
e 45 514
e 45 827
e 48 287
e 48 580
e 48 726
e 48 865
e 49 96
e 49 989
e 49 774
e 51 330
e 51 331
e 51 522
e 51 102
e 51 432
e 51 920
e 52 58
e 52 56
e 52 80
e 52 131
e 53 760
e 53 385
e 53 984
e 54 248
e 54 264
e 54 201
e 54 792
e 54 798
e 54 741
e 55 784
e 55 667
e 55 484
e 55 731
e 56 953
e 56 251
e 56 355
e 56 275
e 56 982
e 58 75
e 58 723
e 58 511
e 58 249
e 58 778
e 58 461
e 59 110
e 59 612
e 59 304
e 59 680
e 59 308
e 59 516
e 59 427
e 61 800
e 61 388
e 61 215
e 61 564
e 61 756
e 61 877
e 62 436
e 62 382
e 62 229
e 62 342
e 63 779
e 63 200
e 63 714
e 63 79
e 63 503
e 64 221
e 64 117
e 64 768
e 64 153
e 64 970
e 66 676
e 66 268
e 66 450
e 66 887
e 66 758
e 67 417
e 67 495
e 67 946
e 67 325
e 67 282
e 70 115
e 70 680
e 70 666
e 71 891
e 71 634
e 71 787
e 71 286
e 71 329
e 71 599
e 72 458
e 72 167
e 72 97
e 72 221
e 72 80
e 73 689
e 73 454
e 73 574
e 73 257
e 73 234
e 73 675
e 74 167
e 74 742
e 74 438
e 75 191
e 75 982
e 75 207
e 75 270
e 75 417
e 75 263
e 75 853
e 75 815
e 76 381
e 76 260
e 76 856
e 76 131
e 76 677
e 76 143
e 76 897
e 77 558
e 77 674
e 77 397
e 77 259
e 78 387
e 78 582
e 78 871
e 78 781
e 78 676
e 78 346
e 79 853
e 79 437
e 79 701
e 79 81
e 79 145
e 79 140
e 80 366
e 80 875
e 80 334
e 80 981
e 81 167
e 81 390
e 81 620
e 81 316
e 81 522
e 81 672
e 81 166
e 82 641
e 82 615
e 82 191
e 83 994
e 83 359
e 83 849
e 84 750
e 84 914
e 84 102
e 84 711
e 86 305
e 86 833
e 86 856
e 86 432
e 86 447
e 89 282
e 89 523
e 89 700
e 89 402
e 89 976
e 89 204
e 89 117
e 89 992
e 89 660
e 91 701
e 91 648
e 91 522
e 91 847
e 91 634
e 91 491
e 92 616
e 92 903
e 92 762
e 92 511
e 93 245
e 93 410
e 93 828
e 93 821
e 94 101
e 94 229
e 94 408
e 94 596
e 94 139
e 95 204
e 95 417
e 95 763
e 95 338
e 96 275
e 96 693
e 96 296
e 97 737
e 97 959
e 97 181
e 97 132
e 97 611
e 97 325
e 99 670
e 99 529
e 99 200
e 99 487
e 100 316
e 100 350
e 100 803
e 100 250
e 100 769
e 100 321
e 101 716
e 101 761
e 102 976
e 102 997
e 102 897
e 102 771
e 102 340
e 103 259
e 103 273
e 103 537
e 103 865
e 105 923
e 105 902
e 105 117
e 105 500
e 106 512
e 106 980
e 106 906
e 106 778
e 108 537
e 108 161
e 108 307
e 109 539
e 109 909
e 109 461
e 109 850
e 109 571
e 110 622
e 110 896
e 110 515
e 110 805
e 110 770
e 110 475
e 110 129
e 111 560
e 111 898
e 111 432
e 111 317
e 111 434
e 112 197
e 112 259
e 112 612
e 115 366
e 115 201
e 115 743
e 116 673
e 116 840
e 116 977
e 116 766
e 117 859
e 118 298
e 118 546
e 118 610
e 118 172
e 118 860
e 118 228
e 120 454
e 120 287
e 120 991
e 120 870
e 125 141
e 125 626
e 125 627
e 125 259
e 125 499
e 127 853
e 127 906
e 127 982
e 129 917
e 129 445
e 129 822
e 129 702
e 129 404
e 130 769
e 130 557
e 130 197
e 131 966
e 132 467
e 132 868
e 134 849
e 134 157
e 135 989
e 135 515
e 135 298
e 135 874
e 136 481
e 136 207
e 136 810
e 136 800
e 136 734
e 136 578
e 137 467
e 137 570
e 137 195
e 137 460
e 137 402
e 138 822
e 138 371
e 138 779
e 139 905
e 139 843
e 139 779
e 139 969
e 140 747
e 140 717
e 140 964
e 140 360
e 141 589
e 141 183
e 141 193
e 142 893
e 142 545
e 142 269
e 142 194
e 142 796
e 142 198
e 142 781
e 143 190
e 143 543
e 143 604
e 144 381
e 144 157
e 144 661
e 144 546
e 145 157
e 145 977
e 145 324
e 145 331
e 145 670
e 146 609
e 146 658
e 146 262
e 146 737
e 146 633
e 146 891
e 147 607
e 147 152
e 147 724
e 147 621
e 147 665
e 147 362
e 147 591
e 148 637
e 148 266
e 148 951
e 148 558
e 148 464
e 148 388
e 149 812
e 149 613
e 151 212
e 151 903
e 151 513
e 151 303
e 151 502
e 151 180
e 151 359
e 152 545
e 152 523
e 152 374
e 152 302
e 152 553
e 153 195
e 153 334
e 153 775
e 153 656
e 153 494
e 153 278
e 157 417
e 157 543
e 159 848
e 159 526
e 159 672
e 159 694
e 159 752
e 159 263
e 159 202
e 161 860
e 161 861
e 162 199
e 162 193
e 162 570
e 162 481
e 162 940
e 164 292
e 164 597
e 164 616
e 165 360
e 165 516
e 165 721
e 166 197
e 166 974
e 166 908
e 167 936
e 168 404
e 168 809
e 168 740
e 169 471
e 169 276
e 169 260
e 169 939
e 169 354
e 169 882
e 172 996
e 172 615
e 173 403
e 173 478
e 173 917
e 173 202
e 173 709
e 173 469
e 173 822
e 175 727
e 175 947
e 175 841
e 177 472
e 177 413
e 177 597
e 177 611
e 177 433
e 178 332
e 178 513
e 178 702
e 180 913
e 180 270
e 180 218
e 181 672
e 181 845
e 181 265
e 183 918
e 183 934
e 183 827
e 185 669
e 185 858
e 185 287
e 186 923
e 186 532
e 186 319
e 187 233
e 187 884
e 187 402
e 187 394
e 187 958
e 190 623
e 190 709
e 191 675
e 191 237
e 191 435
e 192 559
e 192 637
e 192 957
e 192 817
e 193 236
e 193 609
e 194 214
e 194 319
e 194 520
e 195 954
e 197 389
e 197 382
e 197 335
e 197 251
e 198 329
e 198 249
e 198 724
e 198 402
e 199 484
e 199 946
e 199 682
e 199 915
e 200 501
e 200 955
e 200 575
e 201 499
e 201 631
e 202 656
e 202 775
e 202 790
e 202 594
e 202 581
e 204 214
e 204 525
e 204 868
e 204 680
e 204 266
e 204 436
e 204 335
e 204 636
e 204 275
e 205 923
e 205 576
e 205 456
e 205 527
e 206 574
e 206 672
e 206 457
e 207 804
e 208 936
e 208 738
e 208 268
e 209 377
e 209 705
e 209 570
e 211 942
e 211 680
e 211 544
e 211 891
e 212 424
e 212 484
e 213 371
e 213 367
e 213 868
e 214 579
e 214 795
e 214 792
e 215 803
e 215 977
e 216 596
e 216 752
e 216 329
e 217 574
e 217 687
e 217 618
e 217 766
e 217 254
e 217 548
e 217 883
e 218 309
e 218 223
e 218 863
e 219 730
e 219 806
e 219 535
e 219 362
e 221 874
e 221 366
e 221 267
e 222 674
e 222 611
e 222 967
e 223 587
e 224 441
e 224 966
e 225 597
e 225 716
e 225 460
e 225 760
e 225 501
e 226 535
e 226 263
e 226 857
e 226 236
e 226 637
e 228 947
e 228 391
e 228 876
e 228 326
e 228 363
e 229 503
e 229 589
e 229 873
e 231 435
e 231 715
e 231 400
e 231 674
e 231 857
e 232 639
e 232 976
e 232 713
e 232 997
e 233 613
e 233 868
e 233 989
e 234 633
e 234 859
e 234 565
e 234 646
e 234 937
e 234 866
e 235 540
e 235 668
e 235 989
e 235 812
e 235 624
e 236 429
e 236 383
e 236 725
e 237 639
e 237 481
e 237 623
e 237 496
e 240 277
e 240 332
e 240 331
e 240 937
e 241 396
e 241 788
e 241 980
e 241 288
e 241 590
e 241 960
e 242 977
e 242 388
e 242 381
e 244 435
e 244 496
e 244 705
e 244 840
e 244 847
e 245 383
e 245 990
e 246 462
e 246 402
e 246 451
e 246 676
e 247 899
e 247 819
e 247 808
e 247 782
e 247 414
e 247 467
e 248 687
e 248 891
e 248 630
e 249 750
e 250 913
e 250 467
e 250 640
e 251 475
e 253 871
e 253 514
e 253 969
e 254 646
e 254 937
e 254 461
e 255 894
e 255 808
e 255 984
e 255 787
e 257 438
e 257 563
e 258 979
e 258 969
e 258 537
e 260 408
e 260 978
e 261 966
e 261 581
e 261 765
e 261 355
e 261 684
e 262 543
e 262 432
e 263 455
e 263 408
e 263 766
e 263 500
e 263 507
e 264 445
e 264 365
e 264 266
e 265 821
e 265 774
e 265 645
e 266 819
e 267 745
e 267 809
e 267 508
e 267 860
e 268 655
e 268 789
e 268 672
e 269 960
e 269 324
e 269 568
e 269 516
e 270 302
e 270 985
e 270 861
e 273 802
e 273 600
e 274 930
e 274 340
e 274 963
e 274 967
e 274 840
e 275 728
e 275 922
e 276 815
e 276 628
e 277 283
e 277 611
e 277 631
e 277 302
e 277 330
e 278 994
e 278 616
e 278 334
e 278 992
e 278 332
e 279 791
e 279 338
e 279 325
e 279 529
e 281 966
e 281 826
e 281 454
e 281 950
e 282 768
e 282 537
e 282 379
e 282 950
e 282 892
e 282 781
e 282 756
e 283 667
e 283 416
e 286 926
e 286 397
e 286 471
e 287 500
e 288 883
e 288 521
e 288 540
e 291 810
e 291 915
e 292 808
e 292 798
e 292 730
e 292 533
e 292 790
e 293 901
e 293 348
e 293 425
e 293 934
e 293 993
e 293 655
e 293 841
e 294 591
e 294 540
e 294 674
e 296 541
e 296 950
e 296 638
e 296 636
e 297 832
e 297 315
e 297 632
e 298 770
e 298 517
e 298 504
e 298 889
e 298 910
e 300 816
e 300 943
e 300 404
e 300 396
e 302 426
e 302 397
e 302 843
e 302 361
e 303 799
e 303 964
e 303 603
e 303 681
e 303 792
e 303 694
e 304 787
e 304 535
e 305 359
e 305 985
e 306 509
e 306 993
e 307 483
e 307 804
e 307 335
e 307 540
e 307 552
e 307 897
e 308 687
e 308 627
e 308 905
e 309 590
e 309 466
e 309 673
e 309 983
e 309 359
e 310 325
e 310 701
e 310 963
e 310 522
e 310 984
e 310 674
e 310 868
e 312 870
e 312 424
e 312 909
e 312 789
e 313 954
e 313 404
e 313 517
e 314 802
e 314 835
e 314 475
e 315 343
e 315 546
e 315 470
e 315 457
e 315 458
e 316 875
e 316 661
e 316 845
e 316 390
e 317 990
e 317 437
e 317 547
e 317 324
e 317 444
e 317 767
e 317 723
e 319 425
e 319 873
e 319 779
e 319 700
e 321 753
e 321 531
e 321 455
e 325 721
e 325 626
e 326 985
e 326 591
e 326 896
e 327 676
e 327 991
e 327 845
e 327 540
e 327 355
e 329 804
e 329 716
e 329 518
e 330 902
e 330 917
e 331 835
e 332 739
e 332 819
e 333 761
e 333 760
e 333 826
e 333 784
e 333 438
e 334 691
e 334 494
e 334 969
e 334 562
e 334 806
e 335 988
e 335 636
e 338 470
e 338 827
e 338 837
e 338 743
e 339 958
e 339 464
e 340 435
e 340 972
e 340 494
e 341 869
e 341 455
e 341 967
e 341 610
e 342 552
e 342 913
e 343 354
e 343 617
e 343 366
e 346 602
e 346 703
e 347 660
e 347 552
e 347 922
e 347 422
e 348 719
e 348 756
e 348 694
e 348 359
e 348 371
e 350 596
e 350 711
e 351 826
e 351 414
e 351 737
e 351 963
e 352 703
e 352 672
e 352 552
e 352 747
e 352 979
e 352 646
e 352 562
e 354 719
e 354 726
e 354 603
e 355 504
e 355 570
e 355 597
e 356 727
e 356 488
e 356 837
e 356 673
e 357 919
e 357 795
e 357 952
e 357 969
e 357 918
e 357 756
e 357 835
e 359 397
e 360 599
e 360 857
e 361 521
e 361 541
e 361 560
e 362 737
e 362 914
e 363 699
e 363 532
e 365 592
e 366 581
e 366 649
e 367 891
e 367 482
e 367 396
e 367 775
e 369 859
e 369 527
e 369 470
e 369 444
e 374 472
e 374 905
e 374 997
e 374 462
e 377 665
e 377 559
e 377 442
e 377 687
e 379 726
e 379 658
e 381 916
e 381 761
e 382 945
e 382 507
e 382 541
e 382 628
e 382 604
e 382 526
e 383 922
e 384 717
e 384 643
e 384 828
e 384 637
e 384 703
e 384 913
e 385 423
e 385 670
e 385 543
e 385 560
e 387 858
e 387 658
e 388 439
e 388 466
e 388 924
e 388 982
e 389 987
e 389 825
e 389 523
e 389 470
e 389 594
e 390 725
e 390 873
e 391 472
e 391 756
e 393 615
e 393 959
e 393 675
e 394 714
e 394 442
e 396 840
e 396 894
e 396 936
e 396 501
e 397 653
e 397 904
e 397 639
e 398 452
e 398 860
e 398 809
e 398 698
e 398 799
e 400 464
e 400 486
e 402 548
e 403 732
e 403 640
e 403 916
e 404 494
e 407 413
e 407 765
e 407 495
e 407 434
e 410 926
e 410 618
e 410 787
e 410 982
e 410 513
e 413 885
e 413 620
e 413 961
e 413 828
e 414 655
e 414 587
e 416 817
e 416 887
e 417 419
e 419 565
e 419 788
e 419 704
e 420 501
e 420 582
e 420 716
e 420 581
e 420 709
e 420 520
e 422 893
e 422 677
e 422 429
e 422 822
e 423 533
e 423 747
e 423 764
e 423 851
e 423 919
e 423 517
e 423 728
e 424 494
e 424 658
e 425 952
e 425 590
e 426 604
e 426 959
e 427 885
e 427 747
e 427 779
e 429 593
e 430 847
e 430 737
e 430 974
e 432 879
e 432 564
e 432 821
e 432 748
e 432 963
e 432 447
e 433 753
e 433 651
e 433 802
e 434 979
e 434 868
e 434 536
e 434 502
e 434 861
e 434 520
e 435 729
e 435 724
e 436 442
e 436 509
e 436 907
e 437 577
e 438 687
e 439 967
e 439 724
e 439 941
e 441 798
e 441 802
e 441 777
e 441 693
e 441 763
e 442 942
e 442 934
e 444 846
e 444 764
e 445 805
e 446 990
e 446 974
e 446 968
e 447 954
e 450 621
e 450 690
e 450 616
e 451 641
e 451 553
e 451 511
e 451 579
e 452 655
e 452 859
e 452 816
e 454 741
e 454 664
e 455 543
e 456 858
e 456 550
e 457 873
e 457 726
e 458 894
e 458 787
e 458 570
e 458 739
e 458 525
e 458 535
e 458 641
e 460 649
e 460 749
e 460 908
e 460 637
e 460 867
e 462 849
e 462 637
e 462 771
e 462 581
e 462 721
e 463 611
e 463 887
e 463 480
e 464 732
e 465 484
e 465 517
e 465 922
e 466 898
e 466 958
e 469 866
e 469 749
e 470 505
e 470 611
e 470 777
e 471 581
e 471 664
e 471 699
e 471 669
e 472 965
e 472 729
e 475 720
e 475 653
e 475 920
e 477 959
e 477 631
e 477 592
e 477 495
e 478 590
e 478 897
e 478 732
e 480 637
e 480 727
e 480 668
e 481 953
e 482 509
e 482 514
e 483 646
e 483 798
e 484 501
e 484 657
e 484 596
e 484 587
e 484 949
e 484 950
e 484 897
e 486 897
e 486 956
e 486 767
e 487 621
e 487 958
e 487 727
e 487 558
e 488 565
e 488 979
e 488 903
e 488 976
e 488 666
e 488 622
e 489 843
e 489 568
e 489 906
e 489 927
e 489 539
e 491 820
e 491 793
e 493 769
e 493 766
e 493 532
e 494 860
e 494 571
e 495 795
e 495 563
e 495 645
e 495 952
e 496 660
e 496 769
e 496 989
e 498 957
e 498 531
e 498 548
e 499 951
e 500 940
e 501 805
e 502 869
e 502 993
e 502 955
e 502 747
e 502 552
e 503 971
e 504 613
e 504 857
e 504 515
e 504 763
e 505 684
e 505 984
e 505 904
e 505 665
e 505 764
e 507 714
e 507 640
e 507 956
e 508 555
e 508 825
e 508 553
e 509 810
e 509 825
e 511 795
e 511 912
e 512 730
e 512 578
e 514 593
e 514 949
e 514 966
e 514 705
e 516 535
e 516 770
e 516 968
e 516 579
e 516 919
e 516 964
e 516 617
e 516 981
e 517 637
e 517 988
e 517 865
e 517 540
e 517 716
e 517 738
e 518 837
e 518 887
e 518 536
e 519 544
e 519 682
e 519 889
e 520 976
e 520 568
e 521 715
e 521 984
e 521 847
e 522 533
e 522 738
e 522 982
e 522 631
e 523 723
e 523 615
e 525 632
e 525 701
e 525 624
e 525 883
e 525 669
e 526 673
e 526 657
e 526 557
e 527 949
e 529 640
e 532 800
e 533 758
e 533 566
e 533 809
e 533 887
e 533 568
e 535 980
e 535 882
e 536 812
e 536 553
e 539 897
e 539 715
e 540 815
e 540 792
e 542 721
e 542 960
e 542 725
e 542 997
e 544 898
e 544 577
e 544 985
e 544 603
e 545 847
e 546 766
e 547 978
e 548 951
e 548 766
e 548 918
e 548 645
e 548 677
e 550 946
e 550 948
e 552 680
e 552 702
e 552 901
e 552 574
e 555 604
e 555 914
e 557 942
e 557 937
e 558 868
e 559 713
e 559 869
e 560 793
e 562 713
e 563 673
e 564 676
e 566 665
e 566 924
e 568 687
e 568 817
e 570 889
e 570 821
e 570 948
e 570 997
e 571 612
e 572 832
e 572 583
e 574 840
e 574 610
e 575 850
e 575 714
e 575 750
e 576 910
e 576 582
e 576 876
e 577 777
e 577 658
e 578 810
e 578 634
e 579 672
e 579 750
e 580 935
e 580 787
e 583 935
e 583 930
e 583 713
e 587 981
e 587 953
e 587 869
e 589 788
e 590 914
e 591 930
e 591 627
e 592 616
e 593 827
e 593 704
e 594 915
e 596 923
e 596 704
e 596 666
e 599 636
e 600 832
e 600 732
e 602 617
e 602 669
e 603 842
e 604 730
e 607 709
e 607 943
e 609 723
e 610 633
e 611 675
e 611 990
e 611 930
e 611 916
e 613 848
e 613 994
e 616 898
e 617 753
e 617 633
e 617 871
e 617 884
e 620 816
e 620 848
e 621 649
e 621 775
e 622 810
e 623 856
e 623 947
e 623 734
e 624 912
e 624 739
e 626 701
e 626 946
e 628 658
e 630 887
e 630 669
e 631 882
e 631 971
e 632 691
e 634 811
e 634 809
e 636 638
e 636 730
e 636 983
e 637 887
e 637 857
e 637 882
e 637 981
e 638 981
e 639 836
e 639 720
e 639 684
e 640 698
e 643 669
e 643 742
e 645 976
e 648 907
e 648 962
e 649 927
e 649 978
e 651 719
e 651 704
e 653 945
e 653 737
e 655 965
e 656 898
e 656 983
e 656 912
e 656 940
e 661 781
e 664 983
e 666 953
e 666 668
e 667 950
e 667 672
e 668 966
e 668 731
e 669 951
e 670 751
e 670 935
e 673 819
e 673 866
e 673 767
e 675 957
e 675 825
e 676 877
e 676 684
e 676 791
e 677 741
e 681 711
e 681 962
e 682 931
e 684 897
e 687 903
e 687 789
e 687 812
e 689 796
e 689 994
e 690 796
e 690 748
e 691 790
e 693 961
e 693 751
e 694 825
e 698 888
e 699 850
e 699 739
e 700 999
e 700 962
e 700 946
e 701 950
e 703 951
e 705 737
e 709 785
e 710 742
e 710 930
e 710 867
e 711 913
e 711 962
e 713 748
e 713 836
e 714 758
e 717 888
e 717 764
e 720 721
e 720 946
e 720 950
e 720 799
e 723 960
e 723 785
e 723 825
e 723 950
e 724 902
e 724 951
e 726 782
e 726 997
e 727 870
e 727 782
e 728 865
e 729 851
e 730 996
e 731 749
e 732 748
e 733 750
e 733 825
e 733 768
e 734 952
e 737 874
e 739 745
e 740 782
e 740 978
e 741 874
e 742 927
e 742 919
e 742 791
e 743 918
e 745 799
e 747 803
e 748 781
e 748 972
e 749 761
e 751 867
e 751 935
e 752 981
e 752 901
e 752 962
e 755 958
e 755 827
e 755 919
e 755 869
e 756 873
e 758 942
e 758 917
e 758 803
e 761 906
e 762 784
e 762 885
e 763 810
e 765 883
e 765 769
e 766 883
e 768 931
e 768 819
e 769 770
e 770 842
e 771 857
e 774 811
e 777 806
e 777 991
e 778 826
e 778 795
e 779 990
e 781 787
e 781 819
e 781 960
e 782 952
e 782 837
e 784 977
e 785 940
e 787 869
e 789 955
e 790 877
e 790 846
e 790 934
e 791 935
e 791 833
e 791 909
e 792 916
e 792 795
e 793 825
e 793 841
e 796 980
e 798 926
e 800 876
e 803 913
e 805 888
e 805 845
e 806 845
e 806 837
e 808 871
e 808 882
e 808 828
e 811 892
e 812 945
e 813 853
e 813 937
e 815 904
e 815 850
e 817 892
e 820 919
e 820 909
e 821 997
e 822 848
e 825 953
e 832 931
e 833 885
e 836 860
e 837 904
e 840 972
e 840 892
e 840 899
e 842 974
e 843 961
e 846 978
e 848 948
e 848 959
e 853 965
e 856 908
e 857 943
e 858 892
e 863 999
e 866 884
e 867 948
e 871 953
e 874 884
e 875 996
e 877 953
e 879 936
e 882 940
e 882 926
e 884 990
e 888 992
e 889 971
e 891 898
e 892 896
e 893 949
e 899 988
e 901 981
e 901 988
e 901 931
e 903 919
e 912 947
e 913 987
e 913 950
e 914 993
e 930 957
e 939 997
e 939 966
e 940 970
e 946 999
e 956 983
e 956 982
e 962 987
e 965 990
e 967 975
e 970 994
e 971 976
e 975 993
e 976 977
e 987 991
e 994 999
